2467.6
0 9 11 4 1 5 3 0
0 25 16 24 19 15 17 31 29 50 8 14 10 6 12 0
0 33 23 27 34 30 21 20 26 22 18 39 0
0 42 36 41 38 46 40 72 0
0 54 63 64 51 45 44 43 49 47 90 0
0 55 60 57 56 61 59 62 58 66 53 84 67 68 76 0
0 77 81 82 79 78 65 52 89 97 86 91 69 74 70 0
0 80 95 92 94 2 75 0
0 32 28 83 48 37 85 88 73 98 0
0 96 93 99 7 13 0
0 35 87 71 100 0
